
<<< setup


<<< generate

Version identifier: 12.10.0.0 | 2019-11-26 | 843d4de2ae
CPXPARAM_TimeLimit                               1200
Tried aggregator 3 times.
MIP Presolve eliminated 5126778 rows and 2894039 columns.
MIP Presolve modified 432830 coefficients.
Aggregator did 852 substitutions.
Reduced MIP has 115420 rows, 116659 columns, and 749659 nonzeros.
Reduced MIP has 116609 binaries, 0 generals, 0 SOSs, and 0 indicators.
Presolve time = 7.67 sec. (4737.56 ticks)
Found incumbent of value 4638.000000 after 11.80 sec. (6153.27 ticks)
Probing fixed 4145 vars, tightened 0 bounds.
Probing time = 52.94 sec. (9894.13 ticks)
Tried aggregator 2 times.
Detecting symmetries...
MIP Presolve eliminated 3685 rows and 4145 columns.
Aggregator did 1 substitutions.
Reduced MIP has 111734 rows, 112513 columns, and 723362 nonzeros.
Reduced MIP has 112463 binaries, 0 generals, 0 SOSs, and 0 indicators.
Presolve time = 0.92 sec. (493.70 ticks)
Probing fixed 1 vars, tightened 0 bounds.
Probing time = 0.84 sec. (173.09 ticks)
Clique table members: 409324.
MIP emphasis: balance optimality and feasibility.
MIP search method: dynamic search.
Parallel mode: deterministic, using up to 4 threads.
Root relaxation solution time = 6.44 sec. (5288.46 ticks)

        Nodes                                         Cuts/
   Node  Left     Objective  IInf  Best Integer    Best Bound    ItCnt     Gap

*     0+    0                         4638.0000   151178.0000              --- 
      0     0    80716.0000   513     4638.0000    80716.0000    11786     --- 
*     0+    0                         5117.0000    80716.0000              --- 
      0     0    80716.0000   513     5117.0000      Cuts: 17    13490     --- 
      0     0    80716.0000   513     5117.0000    Cuts: 6457    23609     --- 
      0     0    80716.0000   513     5117.0000    Cuts: 1985    30200     --- 
*     0+    0                         9755.0000    80716.0000           727.43%
Heuristic still looking.
Detecting symmetries...
      0     2    80716.0000   550     9755.0000    80716.0000    50309  727.43%
Elapsed time = 439.67 sec. (206603.00 ticks, tree = 0.02 MB, solutions = 3)
      1     3    80716.0000   536     9755.0000    80716.0000    64919  727.43%
      2     4    80716.0000   478     9755.0000    80716.0000    79298  727.43%
      3     3    80716.0000   414     9755.0000    80716.0000    72502  727.43%
      4     5    80716.0000   572     9755.0000    80716.0000    96249  727.43%
      5     7    80716.0000   433     9755.0000    80716.0000   125056  727.43%
      6     5    80716.0000   494     9755.0000    80716.0000    81656  727.43%
      7     8    80716.0000   568     9755.0000    80716.0000   157095  727.43%
      8     6    80716.0000   419     9755.0000    80716.0000   120695  727.43%
      9     4    80716.0000   433     9755.0000    80716.0000    80956  727.43%
     10    10    80716.0000   508     9755.0000    80716.0000   171653  727.43%
Elapsed time = 636.28 sec. (267315.49 ticks, tree = 0.17 MB, solutions = 3)
     11     9    80716.0000   557     9755.0000    80716.0000   203822  727.43%
     12     9    80716.0000   650     9755.0000    80716.0000   198215  727.43%
     13    14    80716.0000   548     9755.0000    80716.0000   314533  727.43%
     14    11    80716.0000   514     9755.0000    80716.0000   243650  727.43%
     15    11    80716.0000   468     9755.0000    80716.0000   203030  727.43%
     16    15    80716.0000   427     9755.0000    80716.0000   317156  727.43%
     17    16    80716.0000   420     9755.0000    80716.0000   319111  727.43%
     19    18    80716.0000   471     9755.0000    80716.0000   452674  727.43%
     22    15    80716.0000   563     9755.0000    80716.0000   398484  727.43%
     23    16    80716.0000   566     9755.0000    80716.0000   399638  727.43%
Elapsed time = 732.59 sec. (300799.54 ticks, tree = 2.06 MB, solutions = 3)
     24    19    80716.0000   458     9755.0000    80716.0000   328178  727.43%
     28    21    80716.0000   417     9755.0000    80716.0000   329577  727.43%
     29    22    80716.0000   477     9755.0000    80716.0000   335614  727.43%
     32    12    80716.0000   677     9755.0000    80716.0000   283583  727.43%
     33    27    80716.0000   426     9755.0000    80716.0000   474410  727.43%
     36    22    80716.0000   471     9755.0000    80716.0000   461878  727.43%
     37    30    80716.0000   395     9755.0000    80716.0000   478888  727.43%
     39    17    80716.0000   564     9755.0000    80716.0000   422165  727.43%
     40    31    80716.0000   381     9755.0000    80716.0000   480248  727.43%
     41    36    80716.0000   549     9755.0000    80716.0000   591953  727.43%
Elapsed time = 1056.05 sec. (349567.49 ticks, tree = 3.41 MB, solutions = 3)
     42    27    80716.0000   521     9755.0000    80716.0000   543467  727.43%
     43    42    80716.0000   435     9755.0000    80716.0000   568474  727.43%
     45    44    80716.0000   384     9755.0000    80716.0000   570591  727.43%
     47    45    80716.0000   440     9755.0000    80716.0000   572913  727.43%
     49    46    80716.0000   447     9755.0000    80716.0000   632486  727.43%
     52    52    80716.0000   415     9755.0000    80716.0000   638250  727.43%
     55    50    80716.0000   433     9755.0000    80716.0000   636161  727.43%
     57    53    80716.0000   456     9755.0000    80716.0000   641205  727.43%
     60    53    80716.0000   424     9755.0000    80716.0000   639235  727.43%
     64    55    80716.0000   422     9755.0000    80716.0000   641139  727.43%
Elapsed time = 1141.70 sec. (370886.52 ticks, tree = 4.32 MB, solutions = 3)
     65    56    80716.0000   459     9755.0000    80716.0000   643323  727.43%
     68    58    80716.0000   394     9755.0000    80716.0000   647686  727.43%
     73    59    80716.0000   421     9755.0000    80716.0000   648364  727.43%
     74    60    80716.0000   476     9755.0000    80716.0000   654858  727.43%
     76    62    80716.0000   454     9755.0000    80716.0000   657255  727.43%
     77    63    80716.0000   441     9755.0000    80716.0000   657805  727.43%
     79    63    80716.0000   417     9755.0000    80716.0000   663164  727.43%

Cover cuts applied:  1
Implied bound cuts applied:  97
Flow cuts applied:  5

Root node processing (before b&c):
  Real time             =  382.39 sec. (173874.77 ticks)
Parallel b&c, 4 threads:
  Real time             =  818.20 sec. (218545.17 ticks)
  Sync time (average)   =  156.67 sec.
  Wait time (average)   =    0.00 sec.
                          ------------
Total (root+branch&cut) = 1200.59 sec. (392419.94 ticks)

<<< solve


OBJECTIVE: 9755

<<< post process


<<< done

